/*********************************************
 * OPL 12.7.1.0 Data
 * Author: Asia
 * Creation Date: 1 sty 2018 at 20:22:23
 *********************************************/
Teachers = {
  <"1">
  <"2">
  <"3">
};

Classes = {
  <"1" 8 100 0 0 1>
  <"2" 8 100 0 0 1>
  <"3" 6 100 0 0 1>
  <"4" 6 100 0 0 1>
  <"5" 6 100 0 0 1>
  <"6" 6 100 0 0 1>
  <"7" 6 100 0 1 1>
  <"8" 6 100 0 1 1>
  <"9" 6 100 0 1 0>
  <"10" 6 100 0 1 0>
  <"11" 6 100 0 1 0>
  <"12" 6 100 0 1 0>
  <"13" 6 100 0 1 0>
  <"14" 6 100 1 0 0>
  <"15" 6 60 1 0 0>
};

Rooms = {
  <"1" 15 0 1 0>
  <"2" 15 0 1 1>
  <"3" 15 0 1 1>
  <"4" 60 0 0 1>
  <"5" 100 0 0 1>
  <"6" 60 1 0 0>

};

// row -> teacher, column -> class
TeacherExpertise = [
  [0 0 0 0 0 0 0 0 0 0 0 0 0 1 1] // e.g. Hulio is unable to give Algebra lessons but is eager to explain differences between link and lane
  [0 1 0 0 0 0 0 1 1 1 1 1 1 0 0]
  [1 0 1 1 1 1 1 1 1 0 0 0 0 0 0]
];

Days = {
  "Monday"
  "Tuesday"
  "Wednesday"
  "Thursday"
  "Friday"
};

TeacherPreferences = [
  [[1 1 1 1 1 1 1 1 1 1 1 1 1 1 1 1 1 1 1 1 1 1 1 1 1 1 1 1 0 0 0 0 0 0 0 0 0 0 0 0 0 0 0 0 0 0 0 0 0 0 0 0 0 0 0 0 ]]
  [[1 1 1 1 1 1 1 1 1 1 1 1 1 1 1 1 1 1 1 1 1 1 1 1 1 1 1 1 0 0 0 0 0 0 0 0 0 0 0 0 0 0 0 0 0 0 0 0 0 0 0 0 0 0 0 0 ]]
  [[0 0 0 0 0 0 0 0 0 0 0 0 0 0 0 0 0 0 0 0 0 0 0 0 0 0 0 0 1 1 1 1 1 1 1 1 1 1 1 1 1 1 1 1 1 1 1 1 1 1 1 1 1 1 1 1 ]]
];

